p cnf 0 0
c K couleurs
16 18 20 22 24 26 28 30 32 34 36 38 40 42 44 46 0
17 19 21 23 25 27 29 31 33 35 37 39 41 43 45 47 0
1 0
-17 0
c 1 color par vertex et au plus 1
16 17 0
-17 -16 0
18 19 0
-19 -18 0
20 21 0
-21 -20 0
22 23 0
-23 -22 0
24 25 0
-25 -24 0
26 27 0
-27 -26 0
28 29 0
-29 -28 0
30 31 0
-31 -30 0
32 33 0
-33 -32 0
34 35 0
-35 -34 0
36 37 0
-37 -36 0
38 39 0
-39 -38 0
40 41 0
-41 -40 0
42 43 0
-43 -42 0
44 45 0
-45 -44 0
46 47 0
-47 -46 0
c gc coresp to G
-16 -19 48 0
-16 -19 -49 1 0
-16 -19 49 -1 0
-17 -18 48 0
-17 -18 -49 1 0
-17 -18 49 -1 0
-18 -21 48 0
-18 -21 -49 2 0
-18 -21 49 -2 0
-19 -20 48 0
-19 -20 -49 2 0
-19 -20 49 -2 0
-20 -23 48 0
-20 -23 -49 3 0
-20 -23 49 -3 0
-21 -22 48 0
-21 -22 -49 3 0
-21 -22 49 -3 0
-22 -25 48 0
-22 -25 -49 4 0
-22 -25 49 -4 0
-23 -24 48 0
-23 -24 -49 4 0
-23 -24 49 -4 0
-24 -27 48 0
-24 -27 -49 5 0
-24 -27 49 -5 0
-25 -26 48 0
-25 -26 -49 5 0
-25 -26 49 -5 0
-26 -29 48 0
-26 -29 -49 6 0
-26 -29 49 -6 0
-27 -28 48 0
-27 -28 -49 6 0
-27 -28 49 -6 0
-28 -31 48 0
-28 -31 -49 7 0
-28 -31 49 -7 0
-29 -30 48 0
-29 -30 -49 7 0
-29 -30 49 -7 0
-30 -33 48 0
-30 -33 -49 8 0
-30 -33 49 -8 0
-31 -32 48 0
-31 -32 -49 8 0
-31 -32 49 -8 0
-32 -35 48 0
-32 -35 -49 9 0
-32 -35 49 -9 0
-33 -34 48 0
-33 -34 -49 9 0
-33 -34 49 -9 0
-34 -37 48 0
-34 -37 -49 10 0
-34 -37 49 -10 0
-35 -36 48 0
-35 -36 -49 10 0
-35 -36 49 -10 0
-36 -39 48 0
-36 -39 -49 11 0
-36 -39 49 -11 0
-37 -38 48 0
-37 -38 -49 11 0
-37 -38 49 -11 0
-38 -41 48 0
-38 -41 -49 12 0
-38 -41 49 -12 0
-39 -40 48 0
-39 -40 -49 12 0
-39 -40 49 -12 0
-40 -43 48 0
-40 -43 -49 13 0
-40 -43 49 -13 0
-41 -42 48 0
-41 -42 -49 13 0
-41 -42 49 -13 0
-42 -45 48 0
-42 -45 -49 14 0
-42 -45 49 -14 0
-43 -44 48 0
-43 -44 -49 14 0
-43 -44 49 -14 0
-44 -47 48 0
-44 -47 -49 15 0
-44 -47 49 -15 0
-45 -46 48 0
-45 -46 -49 15 0
-45 -46 49 -15 0
c X
-51 16 0
-50 16 0
-51 19 0
-50 19 0
-51 1 0
-50 -1 0
51 -16 -19 -1 0
50 -16 -19 1 0
-53 17 0
-52 17 0
-53 18 0
-52 18 0
-53 1 0
-52 -1 0
53 -17 -18 -1 0
52 -17 -18 1 0
-55 18 0
-54 18 0
-55 21 0
-54 21 0
-55 2 0
-54 -2 0
55 -18 -21 -2 0
54 -18 -21 2 0
-57 19 0
-56 19 0
-57 20 0
-56 20 0
-57 2 0
-56 -2 0
57 -19 -20 -2 0
56 -19 -20 2 0
-59 20 0
-58 20 0
-59 23 0
-58 23 0
-59 3 0
-58 -3 0
59 -20 -23 -3 0
58 -20 -23 3 0
-61 21 0
-60 21 0
-61 22 0
-60 22 0
-61 3 0
-60 -3 0
61 -21 -22 -3 0
60 -21 -22 3 0
-63 22 0
-62 22 0
-63 25 0
-62 25 0
-63 4 0
-62 -4 0
63 -22 -25 -4 0
62 -22 -25 4 0
-65 23 0
-64 23 0
-65 24 0
-64 24 0
-65 4 0
-64 -4 0
65 -23 -24 -4 0
64 -23 -24 4 0
-67 24 0
-66 24 0
-67 27 0
-66 27 0
-67 5 0
-66 -5 0
67 -24 -27 -5 0
66 -24 -27 5 0
-69 25 0
-68 25 0
-69 26 0
-68 26 0
-69 5 0
-68 -5 0
69 -25 -26 -5 0
68 -25 -26 5 0
-71 26 0
-70 26 0
-71 29 0
-70 29 0
-71 6 0
-70 -6 0
71 -26 -29 -6 0
70 -26 -29 6 0
-73 27 0
-72 27 0
-73 28 0
-72 28 0
-73 6 0
-72 -6 0
73 -27 -28 -6 0
72 -27 -28 6 0
-75 28 0
-74 28 0
-75 31 0
-74 31 0
-75 7 0
-74 -7 0
75 -28 -31 -7 0
74 -28 -31 7 0
-77 29 0
-76 29 0
-77 30 0
-76 30 0
-77 7 0
-76 -7 0
77 -29 -30 -7 0
76 -29 -30 7 0
-79 30 0
-78 30 0
-79 33 0
-78 33 0
-79 8 0
-78 -8 0
79 -30 -33 -8 0
78 -30 -33 8 0
-81 31 0
-80 31 0
-81 32 0
-80 32 0
-81 8 0
-80 -8 0
81 -31 -32 -8 0
80 -31 -32 8 0
-83 32 0
-82 32 0
-83 35 0
-82 35 0
-83 9 0
-82 -9 0
83 -32 -35 -9 0
82 -32 -35 9 0
-85 33 0
-84 33 0
-85 34 0
-84 34 0
-85 9 0
-84 -9 0
85 -33 -34 -9 0
84 -33 -34 9 0
-87 34 0
-86 34 0
-87 37 0
-86 37 0
-87 10 0
-86 -10 0
87 -34 -37 -10 0
86 -34 -37 10 0
-89 35 0
-88 35 0
-89 36 0
-88 36 0
-89 10 0
-88 -10 0
89 -35 -36 -10 0
88 -35 -36 10 0
-91 36 0
-90 36 0
-91 39 0
-90 39 0
-91 11 0
-90 -11 0
91 -36 -39 -11 0
90 -36 -39 11 0
-93 37 0
-92 37 0
-93 38 0
-92 38 0
-93 11 0
-92 -11 0
93 -37 -38 -11 0
92 -37 -38 11 0
-95 38 0
-94 38 0
-95 41 0
-94 41 0
-95 12 0
-94 -12 0
95 -38 -41 -12 0
94 -38 -41 12 0
-97 39 0
-96 39 0
-97 40 0
-96 40 0
-97 12 0
-96 -12 0
97 -39 -40 -12 0
96 -39 -40 12 0
-99 40 0
-98 40 0
-99 43 0
-98 43 0
-99 13 0
-98 -13 0
99 -40 -43 -13 0
98 -40 -43 13 0
-101 41 0
-100 41 0
-101 42 0
-100 42 0
-101 13 0
-100 -13 0
101 -41 -42 -13 0
100 -41 -42 13 0
-103 42 0
-102 42 0
-103 45 0
-102 45 0
-103 14 0
-102 -14 0
103 -42 -45 -14 0
102 -42 -45 14 0
-105 43 0
-104 43 0
-105 44 0
-104 44 0
-105 14 0
-104 -14 0
105 -43 -44 -14 0
104 -43 -44 14 0
-107 44 0
-106 44 0
-107 47 0
-106 47 0
-107 15 0
-106 -15 0
107 -44 -47 -15 0
106 -44 -47 15 0
-109 45 0
-108 45 0
-109 46 0
-108 46 0
-109 15 0
-108 -15 0
109 -45 -46 -15 0
108 -45 -46 15 0
c x suite
-48 -49 51 53 55 57 59 61 63 65 67 69 71 73 75 77 79 81 83 85 87 89 91 93 95 97 99 101 103 105 107 109 0
-48 49 50 52 54 56 58 60 62 64 66 68 70 72 74 76 78 80 82 84 86 88 90 92 94 96 98 100 102 104 106 108 0
c proper colo
-16 -18 0
-17 -19 0
-18 -20 0
-19 -21 0
-20 -22 0
-21 -23 0
-22 -24 0
-23 -25 0
-24 -26 0
-25 -27 0
-26 -28 0
-27 -29 0
-28 -30 0
-29 -31 0
-30 -32 0
-31 -33 0
-32 -34 0
-33 -35 0
-34 -36 0
-35 -37 0
-36 -38 0
-37 -39 0
-38 -40 0
-39 -41 0
-40 -42 0
-41 -43 0
-42 -44 0
-43 -45 0
-44 -46 0
-45 -47 0
48 0
